language Essence 1.3

letting blksize_delta be
        function(1 --> 10, 2 --> 10, 3 --> 10, 4 --> 10, 5 --> 10, 6 --> 10, 7 --> 10, 8 --> 10, 9 --> 10, 10 --> 10,
                 11 --> 10, 12 --> 10, 13 --> 10, 14 --> 10, 15 --> 10, 16 --> 10, 17 --> 10, 18 --> 10, 19 --> 10,
                 20 --> 10, 21 --> 10, 22 --> 10, 23 --> 10, 24 --> 10, 25 --> 10, 26 --> 10, 27 --> 10, 28 --> 10,
                 29 --> 10, 30 --> 10, 31 --> 10, 32 --> 10, 33 --> 10, 34 --> 10, 35 --> 10, 36 --> 10, 37 --> 10,
                 38 --> 10, 39 --> 10, 40 --> 10, 41 --> 10, 42 --> 10, 43 --> 10, 44 --> 10, 45 --> 10, 46 --> 10,
                 47 --> 10, 48 --> 10, 49 --> 10, 50 --> 10, 51 --> 10, 52 --> 10, 53 --> 10, 54 --> 10, 55 --> 10,
                 56 --> 10)
letting maxcars be
        function(1 --> 9, 2 --> 8, 3 --> 8, 4 --> 8, 5 --> 8, 6 --> 8, 7 --> 8, 8 --> 8, 9 --> 8, 10 --> 8, 11 --> 8,
                 12 --> 8, 13 --> 8, 14 --> 8, 15 --> 8, 16 --> 10, 17 --> 9, 18 --> 10, 19 --> 8, 20 --> 8, 21 --> 8,
                 22 --> 8, 23 --> 8, 24 --> 8, 25 --> 8, 26 --> 8, 27 --> 8, 28 --> 8, 29 --> 8, 30 --> 8, 31 --> 8,
                 32 --> 8, 33 --> 8, 34 --> 8, 35 --> 8, 36 --> 8, 37 --> 8, 38 --> 8, 39 --> 8, 40 --> 8, 41 --> 8,
                 42 --> 8, 43 --> 8, 44 --> 8, 45 --> 8, 46 --> 8, 47 --> 8, 48 --> 8, 49 --> 8, 50 --> 8, 51 --> 8,
                 52 --> 8, 53 --> 8, 54 --> 8, 55 --> 8, 56 --> 8)
letting n_cars be 139
letting n_classes be 26
letting n_options be 56
letting quantity be
        function(1 --> 5, 2 --> 5, 3 --> 5, 4 --> 5, 5 --> 5, 6 --> 5, 7 --> 5, 8 --> 5, 9 --> 5, 10 --> 5, 11 --> 5,
                 12 --> 5, 13 --> 5, 14 --> 5, 15 --> 5, 16 --> 5, 17 --> 5, 18 --> 6, 19 --> 6, 20 --> 6, 21 --> 6,
                 22 --> 6, 23 --> 6, 24 --> 6, 25 --> 6, 26 --> 6)
letting usage be
        relation((1, 18), (1, 43), (2, 9), (2, 28), (2, 47), (2, 56), (3, 16), (3, 24), (3, 46), (3, 52), (3, 56),
                 (4, 45), (5, 4), (5, 9), (5, 28), (6, 23), (6, 31), (7, 43), (7, 46), (7, 50), (8, 29), (9, 33),
                 (9, 34), (9, 52), (10, 9), (10, 31), (10, 52), (11, 24), (11, 54), (12, 15), (12, 50), (13, 33),
                 (13, 40), (13, 55), (14, 4), (14, 14), (14, 15), (15, 5), (15, 46), (15, 49), (16, 4), (16, 25),
                 (16, 30), (17, 7), (17, 30), (17, 36), (18, 56), (19, 56), (20, 15), (20, 44), (21, 6), (21, 10),
                 (21, 18), (21, 22), (21, 33), (21, 38), (21, 50), (22, 25), (22, 26), (23, 1), (23, 2), (23, 3),
                 (23, 8), (23, 12), (23, 13), (23, 17), (23, 19), (23, 21), (23, 27), (23, 34), (23, 35), (23, 37),
                 (23, 39), (23, 41), (23, 42), (23, 48), (23, 51), (23, 53), (24, 52), (25, 6), (25, 32), (25, 38),
                 (25, 40), (26, 11), (26, 15), (26, 18), (26, 20), (26, 25))
$ Visualisation for usage
$  1 18
$  1 43
$  2  9
$  2 28
$  2 47
$  2 56
$  3 16
$  3 24
$  3 46
$  3 52
$  3 56
$  4 45
$  5  4
$  5  9
$  5 28
$  6 23
$  6 31
$  7 43
$  7 46
$  7 50
$  8 29
$  9 33
$  9 34
$  9 52
$ 10  9
$ 10 31
$ 10 52
$ 11 24
$ 11 54
$ 12 15
$ 12 50
$ 13 33
$ 13 40
$ 13 55
$ 14  4
$ 14 14
$ 14 15
$ 15  5
$ 15 46
$ 15 49
$ 16  4
$ 16 25
$ 16 30
$ 17  7
$ 17 30
$ 17 36
$ 18 56
$ 19 56
$ 20 15
$ 20 44
$ 21  6
$ 21 10
$ 21 18
$ 21 22
$ 21 33
$ 21 38
$ 21 50
$ 22 25
$ 22 26
$ 23  1
$ 23  2
$ 23  3
$ 23  8
$ 23 12
$ 23 13
$ 23 17
$ 23 19
$ 23 21
$ 23 27
$ 23 34
$ 23 35
$ 23 37
$ 23 39
$ 23 41
$ 23 42
$ 23 48
$ 23 51
$ 23 53
$ 24 52
$ 25  6
$ 25 32
$ 25 38
$ 25 40
$ 26 11
$ 26 15
$ 26 18
$ 26 20
$ 26 25

